NAME : rat195
TYPE : OP
DIMENSION : 195
COST_LIMIT : 2207
ROUTE_NODES : 182
ROUTE_SCORE : 9750
ROUTE_COST : 2205
NODE_SEQUENCE_SECTION
1
2
3
4
5
6
7
8
9
10
11
12
13
26
25
24
23
22
21
20
34
35
36
37
38
39
52
51
50
49
61
60
59
58
71
72
73
74
62
63
64
65
78
77
76
88
89
90
91
104
103
117
116
115
102
101
100
113
112
111
110
108
121
122
123
124
125
126
127
128
129
130
143
142
141
140
139
138
137
136
135
134
147
148
149
150
151
152
153
154
155
156
168
169
181
182
195
194
193
191
190
189
188
187
186
185
184
183
171
172
173
174
175
176
177
178
179
180
167
166
165
164
163
162
161
160
159
158
157
144
145
132
133
120
119
118
106
105
92
93
94
95
96
97
98
99
87
86
85
84
83
82
81
80
79
66
67
68
69
55
54
53
40
41
42
43
56
57
44
45
46
47
33
32
18
17
16
30
29
28
27
15
-1
DEPOT_SECTION
1
-1
EOF
